benchmarks_CP/INST_49x49/50/inst49x49_50_18.dzn
S=7;
start=[|
25,	-1,	41,	-1,	44,	12,	-1,	20,	13,	40,	-1,	3,	33,	17,	16,	9,	48,	-1,	-1,	35,	-1,	-1,	28,	-1,	-1,	38,	-1,	-1,	45,	1,	31,	-1,	6,	27,	-1,	19,	39,	5,	-1,	14,	8,	-1,	29,	-1,	34,	-1,	-1,	30,	-1|
-1,	47,	39,	-1,	8,	42,	28,	10,	-1,	-1,	14,	-1,	18,	-1,	1,	-1,	-1,	-1,	-1,	-1,	-1,	23,	34,	-1,	5,	24,	-1,	13,	32,	26,	-1,	-1,	33,	46,	30,	-1,	-1,	11,	-1,	6,	-1,	-1,	-1,	4,	-1,	-1,	45,	48,	40|
45,	-1,	31,	-1,	-1,	10,	-1,	-1,	48,	-1,	-1,	-1,	-1,	-1,	-1,	38,	22,	-1,	-1,	4,	-1,	-1,	19,	18,	-1,	-1,	-1,	35,	40,	23,	-1,	-1,	20,	47,	-1,	29,	-1,	-1,	-1,	-1,	25,	-1,	-1,	6,	-1,	-1,	-1,	-1,	32|
18,	-1,	-1,	-1,	3,	46,	16,	39,	-1,	-1,	1,	4,	-1,	-1,	45,	42,	-1,	34,	-1,	-1,	32,	-1,	37,	-1,	-1,	30,	-1,	20,	29,	-1,	48,	7,	10,	-1,	-1,	-1,	-1,	33,	-1,	-1,	49,	-1,	27,	-1,	21,	5,	44,	-1,	14|
-1,	4,	48,	-1,	-1,	-1,	33,	-1,	-1,	-1,	-1,	-1,	8,	19,	6,	12,	-1,	-1,	-1,	29,	-1,	-1,	-1,	-1,	-1,	31,	-1,	41,	-1,	3,	-1,	-1,	-1,	-1,	-1,	-1,	-1,	27,	-1,	-1,	28,	40,	-1,	23,	-1,	26,	9,	-1,	-1|
-1,	-1,	-1,	-1,	-1,	-1,	29,	6,	34,	-1,	32,	9,	-1,	5,	-1,	-1,	27,	17,	-1,	-1,	2,	3,	-1,	47,	-1,	21,	42,	-1,	-1,	19,	35,	-1,	44,	-1,	-1,	-1,	45,	18,	-1,	41,	43,	-1,	-1,	-1,	-1,	-1,	-1,	-1,	-1|
-1,	2,	-1,	26,	1,	-1,	-1,	-1,	-1,	-1,	29,	24,	-1,	-1,	-1,	40,	-1,	5,	-1,	21,	-1,	-1,	-1,	16,	-1,	-1,	43,	-1,	-1,	-1,	-1,	-1,	-1,	-1,	15,	3,	46,	30,	47,	32,	23,	-1,	-1,	-1,	19,	-1,	-1,	-1,	33|
-1,	26,	-1,	29,	-1,	6,	-1,	23,	-1,	9,	12,	-1,	16,	-1,	-1,	-1,	7,	1,	-1,	3,	-1,	-1,	-1,	-1,	-1,	-1,	21,	-1,	-1,	35,	-1,	27,	4,	-1,	-1,	-1,	-1,	36,	20,	28,	-1,	46,	34,	-1,	-1,	-1,	18,	-1,	24|
-1,	20,	-1,	16,	-1,	31,	2,	14,	-1,	-1,	43,	-1,	49,	26,	42,	17,	30,	32,	12,	41,	37,	-1,	27,	11,	-1,	13,	9,	-1,	-1,	-1,	40,	19,	36,	-1,	-1,	39,	-1,	-1,	48,	-1,	1,	-1,	45,	-1,	-1,	-1,	-1,	33,	-1|
-1,	-1,	32,	47,	-1,	49,	46,	8,	-1,	-1,	-1,	13,	20,	-1,	5,	45,	-1,	19,	4,	36,	27,	10,	-1,	-1,	-1,	-1,	-1,	-1,	15,	-1,	-1,	-1,	37,	-1,	-1,	-1,	-1,	-1,	-1,	7,	11,	33,	21,	-1,	-1,	-1,	-1,	-1,	-1|
21,	-1,	-1,	-1,	-1,	-1,	-1,	-1,	38,	4,	22,	-1,	42,	41,	33,	15,	34,	-1,	-1,	-1,	-1,	-1,	-1,	-1,	-1,	-1,	-1,	43,	5,	49,	16,	-1,	-1,	10,	20,	-1,	32,	47,	35,	-1,	27,	29,	44,	30,	-1,	48,	6,	26,	9|
-1,	-1,	33,	25,	4,	-1,	-1,	-1,	-1,	-1,	-1,	-1,	-1,	-1,	-1,	-1,	-1,	-1,	-1,	47,	24,	-1,	16,	19,	-1,	-1,	41,	-1,	39,	29,	23,	-1,	9,	28,	21,	-1,	6,	-1,	-1,	-1,	-1,	18,	3,	-1,	-1,	-1,	49,	-1,	-1|
-1,	-1,	10,	40,	15,	43,	-1,	19,	44,	-1,	11,	36,	6,	-1,	29,	-1,	21,	26,	35,	16,	-1,	-1,	33,	-1,	-1,	42,	-1,	24,	-1,	-1,	8,	48,	-1,	32,	-1,	-1,	4,	-1,	34,	-1,	-1,	-1,	14,	-1,	2,	17,	-1,	-1,	-1|
-1,	23,	14,	-1,	-1,	-1,	22,	-1,	15,	-1,	34,	35,	29,	-1,	-1,	48,	38,	31,	-1,	46,	49,	2,	-1,	-1,	-1,	5,	-1,	-1,	-1,	43,	33,	25,	-1,	-1,	41,	-1,	-1,	13,	45,	21,	37,	26,	1,	19,	27,	36,	16,	-1,	-1|
-1,	19,	22,	12,	-1,	-1,	11,	41,	25,	38,	-1,	47,	40,	-1,	9,	28,	44,	30,	-1,	33,	-1,	4,	5,	3,	21,	-1,	-1,	-1,	-1,	17,	-1,	46,	26,	-1,	-1,	34,	-1,	-1,	24,	-1,	-1,	8,	-1,	18,	6,	29,	42,	-1,	-1|
31,	46,	-1,	-1,	26,	13,	-1,	-1,	12,	-1,	8,	-1,	-1,	-1,	19,	6,	42,	-1,	-1,	40,	-1,	-1,	30,	-1,	49,	-1,	23,	7,	1,	-1,	-1,	3,	11,	-1,	44,	-1,	5,	21,	-1,	-1,	32,	27,	-1,	-1,	-1,	39,	-1,	-1,	41|
-1,	-1,	21,	-1,	-1,	2,	42,	-1,	11,	-1,	26,	-1,	-1,	-1,	15,	27,	1,	-1,	10,	38,	35,	18,	17,	-1,	-1,	-1,	-1,	8,	-1,	39,	6,	47,	-1,	-1,	-1,	36,	28,	-1,	-1,	12,	4,	13,	-1,	-1,	-1,	32,	-1,	46,	30|
-1,	-1,	16,	-1,	17,	18,	-1,	-1,	-1,	37,	-1,	-1,	34,	6,	-1,	-1,	25,	-1,	47,	12,	21,	-1,	20,	43,	31,	-1,	24,	27,	33,	-1,	-1,	-1,	8,	29,	-1,	38,	-1,	19,	26,	-1,	-1,	-1,	22,	-1,	-1,	2,	1,	-1,	-1|
-1,	-1,	-1,	-1,	35,	28,	-1,	-1,	-1,	46,	49,	23,	45,	1,	32,	-1,	17,	48,	3,	18,	29,	-1,	39,	-1,	33,	37,	-1,	-1,	-1,	-1,	-1,	-1,	34,	25,	-1,	-1,	-1,	-1,	9,	-1,	31,	-1,	8,	-1,	11,	-1,	27,	24,	-1|
-1,	-1,	38,	24,	-1,	33,	45,	18,	-1,	21,	-1,	30,	36,	-1,	-1,	-1,	37,	4,	22,	-1,	8,	12,	-1,	-1,	10,	29,	6,	19,	-1,	2,	-1,	13,	43,	14,	28,	-1,	23,	40,	25,	-1,	46,	-1,	-1,	-1,	-1,	15,	-1,	34,	35|
-1,	-1,	36,	30,	-1,	-1,	-1,	-1,	-1,	29,	-1,	42,	-1,	16,	-1,	-1,	-1,	-1,	41,	11,	-1,	-1,	9,	-1,	46,	35,	26,	38,	49,	-1,	-1,	22,	21,	4,	32,	6,	-1,	45,	39,	33,	-1,	7,	23,	12,	-1,	-1,	5,	-1,	17|
15,	-1,	23,	14,	-1,	39,	7,	49,	1,	33,	4,	32,	-1,	21,	11,	19,	-1,	-1,	5,	37,	20,	30,	-1,	45,	9,	-1,	16,	3,	-1,	-1,	29,	-1,	12,	-1,	-1,	-1,	-1,	-1,	31,	-1,	44,	25,	36,	22,	-1,	35,	-1,	41,	-1|
48,	-1,	-1,	45,	18,	-1,	3,	38,	-1,	42,	23,	22,	-1,	-1,	17,	34,	2,	44,	36,	-1,	-1,	-1,	-1,	-1,	24,	47,	-1,	-1,	-1,	-1,	10,	41,	25,	43,	-1,	27,	33,	-1,	8,	9,	29,	-1,	6,	39,	-1,	-1,	-1,	5,	37|
8,	-1,	37,	43,	12,	-1,	-1,	-1,	-1,	3,	-1,	20,	-1,	-1,	40,	-1,	15,	10,	38,	24,	4,	-1,	-1,	-1,	6,	-1,	-1,	18,	22,	48,	1,	-1,	2,	-1,	-1,	28,	21,	-1,	13,	16,	-1,	45,	-1,	44,	-1,	-1,	-1,	42,	-1|
13,	30,	11,	-1,	25,	41,	20,	-1,	-1,	-1,	6,	-1,	27,	45,	26,	-1,	-1,	-1,	-1,	1,	-1,	37,	-1,	46,	42,	-1,	7,	-1,	-1,	-1,	-1,	-1,	-1,	24,	-1,	4,	-1,	-1,	23,	-1,	-1,	-1,	-1,	2,	40,	-1,	-1,	3,	29|
1,	-1,	-1,	27,	40,	-1,	6,	43,	-1,	2,	41,	-1,	-1,	-1,	-1,	47,	28,	-1,	13,	25,	-1,	-1,	-1,	26,	34,	-1,	8,	23,	-1,	9,	-1,	38,	5,	37,	-1,	18,	12,	-1,	49,	-1,	10,	20,	30,	31,	46,	-1,	17,	-1,	-1|
-1,	35,	47,	46,	38,	-1,	-1,	31,	8,	-1,	24,	34,	-1,	15,	-1,	22,	33,	39,	-1,	-1,	43,	-1,	44,	-1,	36,	-1,	-1,	-1,	-1,	-1,	27,	-1,	-1,	-1,	45,	5,	-1,	-1,	41,	11,	6,	-1,	4,	-1,	16,	13,	10,	-1,	18|
5,	24,	42,	33,	29,	-1,	44,	48,	40,	-1,	-1,	-1,	-1,	10,	-1,	14,	-1,	-1,	6,	-1,	-1,	-1,	13,	22,	28,	-1,	-1,	-1,	-1,	31,	-1,	-1,	19,	-1,	-1,	32,	-1,	7,	-1,	-1,	26,	34,	38,	-1,	20,	27,	43,	25,	23|
24,	22,	34,	18,	-1,	47,	-1,	-1,	49,	19,	2,	-1,	-1,	-1,	43,	-1,	12,	40,	28,	5,	-1,	-1,	31,	-1,	11,	20,	-1,	30,	-1,	-1,	15,	8,	41,	-1,	4,	45,	9,	37,	-1,	-1,	-1,	23,	-1,	46,	-1,	14,	48,	7,	25|
33,	41,	-1,	-1,	-1,	-1,	-1,	-1,	5,	-1,	-1,	-1,	-1,	-1,	48,	-1,	-1,	20,	42,	-1,	22,	17,	43,	32,	-1,	-1,	-1,	-1,	-1,	-1,	-1,	-1,	-1,	19,	-1,	13,	34,	46,	-1,	-1,	-1,	6,	37,	26,	47,	12,	35,	45,	-1|
-1,	3,	-1,	5,	45,	-1,	38,	-1,	9,	43,	17,	8,	12,	37,	41,	44,	46,	11,	-1,	34,	26,	-1,	42,	14,	19,	10,	-1,	-1,	23,	-1,	-1,	-1,	-1,	-1,	-1,	21,	31,	-1,	33,	-1,	15,	-1,	39,	-1,	-1,	-1,	-1,	40,	-1|
17,	-1,	46,	11,	-1,	-1,	8,	32,	-1,	13,	15,	-1,	44,	-1,	-1,	-1,	-1,	25,	-1,	-1,	-1,	24,	-1,	-1,	-1,	-1,	-1,	28,	-1,	10,	-1,	-1,	-1,	-1,	-1,	-1,	-1,	49,	1,	4,	-1,	5,	18,	42,	-1,	-1,	-1,	27,	2|
9,	43,	30,	-1,	13,	-1,	15,	3,	-1,	-1,	-1,	48,	46,	23,	-1,	35,	-1,	6,	1,	-1,	36,	21,	-1,	7,	26,	-1,	-1,	-1,	18,	-1,	-1,	44,	-1,	-1,	2,	14,	-1,	-1,	27,	-1,	-1,	32,	-1,	29,	22,	11,	41,	19,	-1|
-1,	39,	-1,	-1,	-1,	48,	-1,	-1,	-1,	20,	-1,	-1,	-1,	34,	27,	-1,	-1,	16,	-1,	9,	-1,	-1,	22,	-1,	-1,	18,	44,	29,	-1,	-1,	-1,	-1,	31,	42,	-1,	12,	-1,	-1,	30,	43,	-1,	-1,	32,	38,	15,	-1,	-1,	-1,	3|
23,	-1,	-1,	10,	-1,	-1,	27,	35,	-1,	7,	-1,	40,	38,	-1,	-1,	8,	32,	37,	-1,	-1,	-1,	6,	4,	33,	-1,	-1,	45,	-1,	11,	36,	-1,	-1,	47,	-1,	1,	26,	17,	-1,	28,	-1,	-1,	41,	9,	49,	44,	-1,	31,	-1,	13|
10,	33,	-1,	-1,	16,	-1,	-1,	37,	-1,	-1,	19,	-1,	-1,	-1,	-1,	36,	-1,	28,	-1,	-1,	42,	-1,	-1,	-1,	43,	-1,	31,	-1,	8,	-1,	-1,	-1,	-1,	-1,	-1,	41,	20,	-1,	17,	-1,	-1,	-1,	-1,	-1,	-1,	-1,	11,	-1,	1|
46,	9,	7,	-1,	-1,	35,	-1,	21,	-1,	-1,	-1,	11,	13,	-1,	4,	49,	-1,	-1,	37,	-1,	19,	45,	-1,	-1,	16,	-1,	-1,	-1,	25,	24,	-1,	31,	-1,	-1,	-1,	10,	-1,	-1,	32,	-1,	-1,	30,	2,	36,	-1,	40,	-1,	-1,	20|
-1,	36,	17,	-1,	-1,	8,	41,	34,	-1,	25,	-1,	-1,	-1,	-1,	-1,	43,	11,	-1,	-1,	-1,	40,	5,	2,	24,	-1,	-1,	-1,	46,	-1,	12,	13,	14,	7,	-1,	-1,	-1,	18,	-1,	22,	45,	48,	-1,	-1,	3,	38,	-1,	-1,	37,	26|
-1,	37,	28,	38,	2,	5,	-1,	26,	43,	-1,	-1,	-1,	-1,	49,	22,	-1,	47,	-1,	48,	-1,	-1,	1,	40,	-1,	-1,	-1,	36,	25,	-1,	33,	-1,	-1,	15,	45,	-1,	7,	11,	-1,	-1,	-1,	21,	-1,	24,	17,	-1,	44,	-1,	4,	27|
-1,	1,	-1,	-1,	-1,	15,	48,	-1,	14,	22,	-1,	28,	23,	29,	-1,	25,	45,	24,	-1,	17,	31,	27,	-1,	35,	-1,	7,	19,	-1,	-1,	-1,	38,	42,	16,	-1,	46,	47,	-1,	44,	-1,	40,	5,	4,	-1,	41,	-1,	-1,	33,	-1,	-1|
14,	13,	24,	32,	49,	-1,	-1,	-1,	18,	31,	38,	-1,	17,	-1,	34,	30,	3,	41,	23,	7,	-1,	-1,	-1,	-1,	-1,	8,	-1,	22,	35,	28,	36,	-1,	-1,	5,	-1,	-1,	29,	6,	-1,	-1,	9,	-1,	19,	43,	48,	21,	-1,	16,	45|
-1,	-1,	43,	21,	19,	45,	12,	4,	-1,	-1,	-1,	27,	-1,	24,	13,	-1,	20,	-1,	-1,	-1,	38,	-1,	-1,	-1,	48,	-1,	49,	11,	-1,	40,	41,	-1,	3,	23,	-1,	-1,	-1,	26,	-1,	37,	-1,	42,	10,	-1,	-1,	30,	47,	9,	28|
44,	-1,	-1,	48,	6,	-1,	18,	9,	-1,	-1,	16,	-1,	35,	30,	-1,	-1,	-1,	38,	40,	45,	5,	7,	-1,	-1,	-1,	-1,	17,	-1,	-1,	-1,	47,	-1,	-1,	2,	-1,	-1,	-1,	32,	11,	-1,	33,	-1,	-1,	13,	8,	-1,	-1,	31,	-1|
-1,	45,	-1,	-1,	33,	37,	-1,	-1,	2,	11,	-1,	14,	-1,	25,	7,	29,	35,	21,	19,	48,	-1,	-1,	-1,	-1,	-1,	-1,	-1,	34,	41,	44,	-1,	16,	-1,	-1,	26,	42,	-1,	-1,	38,	-1,	13,	-1,	-1,	32,	-1,	3,	24,	17,	-1|
47,	-1,	20,	41,	-1,	27,	-1,	12,	-1,	34,	-1,	-1,	24,	8,	-1,	4,	-1,	9,	30,	31,	-1,	-1,	-1,	-1,	18,	-1,	-1,	40,	14,	-1,	-1,	-1,	22,	33,	-1,	-1,	44,	10,	5,	2,	7,	49,	35,	-1,	23,	-1,	-1,	6,	-1|
12,	32,	8,	-1,	22,	38,	4,	1,	-1,	39,	13,	19,	3,	-1,	18,	-1,	26,	42,	-1,	-1,	41,	-1,	-1,	10,	29,	-1,	5,	16,	-1,	21,	46,	-1,	-1,	-1,	23,	37,	14,	-1,	40,	-1,	-1,	-1,	-1,	9,	36,	28,	30,	-1,	-1|
35,	-1,	13,	9,	-1,	-1,	23,	-1,	36,	17,	42,	-1,	-1,	22,	-1,	20,	10,	-1,	-1,	44,	-1,	-1,	-1,	49,	-1,	41,	33,	14,	-1,	4,	3,	5,	29,	31,	25,	-1,	26,	16,	-1,	15,	-1,	21,	-1,	-1,	-1,	-1,	-1,	-1,	38|
-1,	-1,	-1,	3,	-1,	-1,	-1,	33,	-1,	-1,	-1,	-1,	-1,	-1,	-1,	-1,	-1,	-1,	46,	22,	-1,	-1,	47,	37,	15,	44,	-1,	-1,	-1,	-1,	-1,	40,	-1,	-1,	-1,	-1,	-1,	23,	-1,	31,	-1,	9,	42,	27,	-1,	25,	-1,	10,	12|
36,	-1,	15,	2,	7,	14,	-1,	27,	-1,	-1,	-1,	26,	41,	-1,	-1,	-1,	-1,	-1,	-1,	-1,	6,	42,	46,	-1,	-1,	-1,	-1,	31,	9,	32,	45,	18,	28,	38,	48,	8,	-1,	-1,	-1,	-1,	-1,	-1,	-1,	34,	33,	4,	21,	39,	16|];
