benchmarks_LEQ/INST_49x49/50/inst49x49_50_18.txt
7
1
25	11	41	23	44	12	32	20	-1	-1	-1	3	33	-1	16	-1	48	-1	7	35	-1	36	28	-1	-1	-1	46	26	-1	-1	-1	21	-1	27	-1	-1	-1	-1	-1	14	8	2	-1	24	-1	-1	15	30	-1
-1	-1	-1	-1	8	-1	28	10	-1	-1	-1	-1	-1	-1	-1	-1	43	3	-1	-1	-1	23	-1	12	-1	-1	29	-1	32	-1	25	2	-1	-1	-1	-1	36	11	-1	6	-1	38	-1	4	17	22	45	48	40
45	15	-1	-1	-1	-1	24	7	-1	-1	44	-1	-1	-1	46	38	22	-1	-1	4	-1	9	19	-1	8	-1	-1	35	40	23	14	-1	20	47	-1	29	-1	34	-1	26	25	-1	-1	6	41	-1	-1	2	-1
-1	-1	9	22	-1	46	-1	39	-1	-1	1	4	-1	-1	45	42	19	-1	24	-1	-1	-1	-1	6	40	30	-1	-1	-1	-1	-1	-1	10	41	12	-1	-1	-1	15	35	-1	-1	27	47	-1	-1	-1	36	-1
43	-1	-1	35	5	21	33	-1	-1	-1	25	-1	8	19	-1	-1	-1	14	-1	29	-1	-1	-1	2	-1	-1	-1	41	-1	-1	-1	37	-1	-1	17	-1	24	-1	16	-1	28	-1	-1	-1	-1	26	9	-1	39
-1	49	40	13	-1	-1	29	6	-1	36	32	-1	15	5	-1	23	27	-1	-1	-1	-1	3	14	-1	1	21	-1	33	-1	-1	35	39	-1	16	38	48	45	-1	4	41	43	22	12	8	-1	46	-1	-1	10
6	-1	27	26	-1	34	-1	42	31	-1	-1	24	-1	38	8	40	-1	5	-1	21	10	-1	-1	-1	-1	45	-1	48	28	22	-1	9	-1	36	-1	3	-1	-1	-1	-1	-1	-1	-1	37	19	-1	13	-1	33
39	-1	44	-1	48	6	-1	-1	33	9	-1	5	-1	32	-1	10	-1	-1	-1	3	-1	49	45	-1	-1	22	21	37	-1	35	2	-1	4	-1	-1	43	40	-1	20	28	19	46	-1	11	13	41	-1	-1	-1
3	20	35	16	-1	31	2	14	-1	-1	-1	-1	-1	-1	-1	17	30	32	12	-1	-1	29	27	-1	-1	-1	9	-1	6	34	40	-1	36	-1	-1	-1	22	8	48	-1	-1	-1	-1	5	10	-1	38	-1	46
38	-1	-1	47	9	49	46	-1	-1	-1	-1	13	20	39	5	-1	6	19	-1	-1	27	-1	-1	-1	-1	34	-1	-1	15	14	-1	26	37	-1	3	30	16	41	-1	-1	11	33	21	-1	28	-1	-1	29	-1
21	-1	45	8	37	-1	-1	-1	-1	-1	22	-1	42	-1	33	-1	-1	18	-1	-1	-1	-1	3	28	14	-1	40	43	5	-1	16	11	-1	10	-1	24	-1	-1	35	-1	27	-1	-1	-1	39	-1	-1	26	9
34	-1	-1	25	4	-1	-1	30	37	10	45	2	48	46	44	-1	40	-1	-1	-1	24	32	16	19	20	26	-1	17	39	29	-1	-1	-1	-1	21	-1	-1	38	-1	-1	14	-1	3	-1	35	8	-1	-1	7
41	7	10	40	-1	43	-1	-1	44	-1	-1	36	-1	27	29	39	21	-1	-1	-1	-1	-1	-1	-1	-1	42	-1	24	-1	45	-1	48	-1	-1	-1	49	4	9	34	-1	-1	-1	14	20	-1	-1	-1	-1	-1
42	-1	14	28	-1	17	22	-1	15	18	34	-1	-1	3	-1	48	38	-1	-1	-1	-1	2	8	39	-1	5	-1	-1	12	-1	33	25	-1	30	41	-1	10	13	-1	21	-1	26	1	19	-1	-1	-1	-1	4
-1	19	22	-1	14	23	-1	-1	-1	-1	-1	-1	-1	48	-1	28	-1	-1	-1	-1	45	-1	5	3	-1	-1	15	-1	-1	-1	-1	46	-1	7	10	-1	43	20	-1	49	-1	-1	-1	18	-1	-1	-1	13	-1
31	46	-1	-1	-1	-1	37	17	-1	-1	8	-1	9	-1	-1	-1	-1	2	34	40	16	-1	30	36	-1	-1	-1	-1	-1	38	-1	3	-1	35	-1	-1	-1	21	-1	-1	32	27	43	33	45	-1	-1	-1	41
49	29	21	-1	41	-1	42	24	11	5	26	43	-1	-1	-1	27	1	-1	10	-1	35	-1	17	-1	45	-1	-1	-1	20	-1	-1	47	23	9	-1	-1	28	3	37	12	-1	13	-1	-1	-1	-1	19	46	-1
4	48	16	39	-1	18	9	-1	-1	37	-1	-1	-1	-1	-1	-1	-1	23	47	-1	21	28	-1	43	-1	-1	24	-1	-1	5	30	45	8	-1	40	38	-1	19	26	42	-1	10	22	14	-1	2	1	-1	-1
20	5	-1	-1	35	28	43	-1	4	-1	-1	23	45	-1	32	-1	17	48	3	-1	-1	-1	-1	40	33	-1	13	42	-1	41	-1	12	34	25	36	15	-1	-1	-1	47	31	-1	8	10	11	-1	-1	-1	21
27	44	-1	-1	47	-1	-1	18	-1	-1	-1	30	-1	-1	49	-1	37	-1	-1	20	-1	-1	32	-1	10	29	6	19	48	2	-1	13	43	14	28	11	23	40	25	-1	46	17	26	-1	-1	-1	7	-1	-1
40	-1	36	-1	10	3	-1	-1	-1	-1	28	-1	19	16	-1	-1	13	43	-1	11	-1	34	9	-1	-1	35	-1	-1	-1	15	18	22	-1	4	32	-1	48	45	-1	33	2	-1	-1	12	-1	47	-1	-1	-1
15	10	-1	-1	-1	39	7	49	-1	33	-1	32	-1	21	-1	19	18	-1	5	37	-1	30	-1	-1	-1	-1	16	-1	26	-1	29	28	-1	6	-1	-1	2	-1	-1	-1	44	25	36	-1	-1	-1	8	-1	-1
48	-1	-1	45	18	32	-1	38	-1	-1	23	22	-1	13	17	-1	2	-1	36	-1	7	40	15	31	-1	47	-1	-1	46	20	-1	41	25	43	35	27	-1	-1	-1	-1	-1	19	6	-1	-1	-1	26	-1	37
8	-1	-1	43	12	-1	-1	-1	46	-1	9	20	25	-1	-1	-1	-1	-1	38	24	-1	41	-1	5	-1	-1	-1	18	-1	48	-1	23	2	39	33	-1	-1	35	-1	16	-1	45	47	-1	-1	7	-1	42	19
13	-1	-1	36	-1	-1	20	-1	19	12	6	-1	27	-1	26	-1	-1	-1	21	1	-1	37	-1	46	-1	-1	-1	10	47	18	-1	34	-1	-1	14	-1	15	22	23	39	38	-1	-1	-1	40	-1	32	-1	29
-1	21	19	-1	40	22	-1	43	-1	-1	-1	-1	-1	-1	-1	-1	-1	-1	-1	25	3	-1	-1	-1	34	4	8	23	36	9	-1	38	5	-1	16	-1	12	-1	-1	-1	-1	-1	-1	31	-1	-1	17	-1	-1
2	-1	-1	46	38	-1	-1	-1	-1	-1	-1	34	28	15	23	-1	-1	-1	29	-1	-1	-1	-1	-1	-1	25	-1	32	-1	-1	-1	30	17	-1	45	-1	-1	-1	41	-1	-1	14	4	21	-1	-1	-1	-1	18
-1	-1	-1	-1	-1	16	44	-1	40	35	-1	-1	37	-1	12	14	-1	-1	6	49	-1	-1	-1	-1	28	-1	2	1	4	31	21	15	-1	-1	-1	32	47	-1	-1	-1	-1	34	38	-1	20	27	-1	25	23
-1	22	34	18	-1	-1	-1	29	49	-1	-1	-1	-1	42	-1	-1	12	40	28	5	17	16	-1	-1	11	20	-1	30	-1	-1	-1	-1	41	3	4	45	9	37	44	-1	35	23	33	46	1	14	-1	-1	25
33	-1	-1	44	31	7	40	-1	5	30	27	-1	-1	11	-1	-1	-1	20	42	-1	22	17	43	32	23	39	-1	-1	38	25	-1	-1	14	19	9	13	-1	-1	-1	36	-1	6	37	26	-1	12	-1	45	8
-1	3	-1	5	-1	25	-1	22	-1	-1	-1	-1	12	-1	-1	-1	46	-1	18	-1	26	35	42	-1	19	-1	-1	47	23	30	-1	49	32	-1	-1	-1	31	2	-1	20	15	-1	39	28	4	24	-1	40	6
17	-1	46	11	-1	19	-1	32	-1	-1	15	-1	44	14	-1	3	-1	25	45	-1	33	-1	-1	-1	-1	-1	37	-1	43	10	-1	35	-1	-1	-1	16	-1	49	-1	4	-1	5	18	-1	30	34	20	27	-1
9	43	30	37	-1	4	-1	-1	-1	-1	33	-1	-1	23	-1	-1	-1	6	1	10	36	21	25	7	-1	40	-1	49	18	-1	20	-1	-1	12	-1	-1	38	39	27	8	42	-1	-1	-1	22	-1	-1	-1	5
-1	39	2	-1	28	-1	-1	45	6	-1	-1	-1	4	34	-1	7	49	16	14	9	47	-1	22	8	-1	18	44	29	-1	46	5	33	-1	42	37	12	19	-1	-1	-1	-1	-1	32	38	-1	-1	23	21	3
23	14	-1	10	-1	20	27	35	24	7	21	40	38	-1	30	8	-1	-1	15	19	39	-1	4	-1	-1	46	-1	5	11	-1	34	-1	-1	-1	1	26	-1	25	28	22	3	41	-1	-1	-1	16	31	-1	-1
-1	33	-1	-1	16	-1	-1	37	30	-1	-1	45	5	40	2	-1	9	28	-1	-1	42	-1	-1	34	-1	-1	31	-1	8	-1	-1	32	-1	22	29	41	-1	-1	17	13	24	-1	-1	7	-1	18	-1	-1	-1
-1	-1	7	-1	23	35	-1	21	42	-1	-1	-1	13	12	-1	49	-1	-1	-1	39	-1	45	41	-1	-1	3	-1	44	25	24	-1	31	27	1	-1	10	-1	-1	-1	-1	-1	30	2	36	29	40	22	-1	-1
-1	-1	17	42	-1	-1	-1	34	35	25	20	-1	1	-1	-1	-1	11	-1	-1	-1	40	-1	-1	-1	-1	-1	-1	-1	10	12	13	14	-1	49	-1	23	-1	-1	22	-1	-1	-1	-1	3	-1	31	39	37	26
-1	-1	-1	38	-1	5	-1	-1	43	16	-1	41	32	-1	22	18	47	-1	48	-1	46	-1	40	-1	13	-1	-1	25	-1	33	-1	-1	-1	-1	-1	-1	-1	31	3	-1	-1	39	-1	-1	-1	-1	-1	-1	-1
11	-1	18	-1	-1	15	-1	-1	-1	-1	3	28	23	29	10	25	-1	24	26	17	31	-1	-1	-1	30	-1	19	9	2	-1	-1	42	16	-1	-1	47	49	44	43	-1	5	-1	-1	-1	-1	6	33	-1	-1
14	-1	24	32	-1	-1	47	-1	18	31	-1	44	-1	2	34	-1	3	-1	23	-1	-1	26	-1	42	37	8	-1	-1	-1	-1	36	-1	-1	5	-1	33	29	-1	-1	-1	9	-1	-1	43	48	21	25	16	45
-1	31	43	-1	-1	-1	12	4	-1	8	-1	27	-1	-1	13	-1	-1	-1	16	32	38	33	18	29	48	6	-1	11	44	40	41	-1	3	23	-1	2	-1	-1	-1	37	-1	-1	10	-1	-1	30	-1	9	28
44	-1	26	48	-1	-1	-1	-1	23	15	-1	-1	35	30	-1	24	-1	38	40	45	-1	-1	-1	-1	4	12	-1	-1	-1	27	-1	10	-1	-1	43	-1	-1	32	-1	34	-1	-1	-1	-1	8	-1	46	-1	22
28	-1	-1	49	-1	37	-1	-1	-1	11	-1	14	-1	-1	7	-1	35	21	19	-1	-1	-1	6	-1	-1	23	22	-1	-1	44	12	-1	-1	8	-1	-1	27	-1	-1	18	-1	-1	-1	32	43	-1	-1	-1	47
-1	-1	-1	41	46	-1	-1	12	-1	34	-1	-1	24	-1	-1	4	-1	-1	30	-1	13	-1	26	38	-1	-1	-1	-1	14	-1	17	-1	22	-1	39	-1	44	-1	-1	-1	7	-1	-1	1	23	-1	-1	-1	-1
12	-1	8	31	-1	38	4	1	-1	-1	-1	19	3	-1	-1	-1	-1	-1	-1	-1	41	-1	24	10	-1	2	5	16	-1	-1	-1	-1	35	15	-1	37	-1	43	40	48	45	47	11	9	36	-1	-1	49	44
35	34	-1	9	30	-1	-1	-1	-1	17	42	6	-1	-1	47	20	10	12	32	-1	1	-1	11	49	-1	-1	33	-1	-1	-1	3	-1	29	31	25	46	-1	16	19	15	39	21	40	-1	-1	45	2	18	38
19	-1	5	-1	-1	-1	-1	-1	-1	-1	18	38	-1	4	-1	2	8	-1	46	-1	34	48	47	-1	-1	-1	30	-1	-1	13	49	-1	1	-1	-1	35	41	23	6	-1	17	9	-1	27	-1	-1	14	-1	-1
36	40	15	-1	-1	-1	17	-1	-1	-1	-1	-1	-1	47	25	-1	-1	49	-1	-1	6	42	46	-1	-1	-1	-1	31	9	32	-1	18	28	-1	-1	8	1	29	-1	-1	22	-1	20	34	-1	-1	-1	-1	-1
49 
36 49 40 2
35 25 11 19
45 15 18 45
30 17 23 3
49 11 28 1
15 45 1 33
21 42 19 4
37 37 39 20
27 6 31 9
29 40 16 12
7 13 49 19
27 27 15 4
44 41 28 23
7 7 26 22
17 15 38 43
27 45 17 26
3 4 33 43
38 37 30 41
39 40 29 10
18 23 44 22
21 33 23 28
46 5 48 20
5 44 32 20
39 43 28 2
48 46 36 7
37 7 24 6
21 9 12 2
25 43 47 8
14 13 28 5
46 47 8 7
14 18 3 3
35 17 14 48
3 19 23 37
4 18 20 48
7 48 39 18
8 38 39 27
1 11 27 37
49 34 37 40
36 28 44 25
5 42 41 6
21 19 15 8
25 25 6 27
31 10 25 42
35 45 33 32
48 28 5 10
46 31 19 10
11 38 42 47
31 42 27 38
24 26 4 41
